NAME : CHRVRP
COMMENT : master instance for CHRVRP
EDGE_WEIGHT_TYPE : EUC_2D
NODE_COORD_SECTION
V100 40.769e+03 71.077e+03
V101 5.537e+03 96.579e+03
V102 78.853e+03 0.422e+03
S0 50.837e+03 68.389e+03
S1 66.390e+03 40.535e+03
D10 51.730e+03 0.246e+03
D11 94.696e+03 88.403e+03
D12 76.546e+03 88.495e+03
D13 28.240e+03 30.041e+03
D14 22.105e+03 58.958e+03
D15 68.622e+03 97.843e+03
D16 16.714e+03 84.509e+03
D17 39.244e+03 6.508e+03
D18 61.805e+03 29.474e+03
D19 41.193e+03 28.793e+03
EOF
